0001 14
0002 14
0003 11
0004 12
0005 9
0006 4
0007 12
0008 8
0009 0
0010 0
0011 0
0012 0
0013 15
0014 4
0015 2
0016 13
0017 6
0018 3
0019 13
0020 12
0021 6
0022 3
0023 0
0024 9
0025 17
0026 1
0027 9
0028 2
0029 5
0030 5
0031 5
0032 19
0033 21
0034 21
0035 19
0036 5
0037 19
0038 19
0039 19
0040 1
0041 1
0042 9
0043 1
0044 3
0045 10
0046 4
0047 7
0048 17
0049 21
0050 4
0051 8
0052 21
0053 18
0054 3
0055 10
0056 10
0057 10
0058 1
0059 1
0060 18
0061 11
0062 17
0063 4
0064 0
0065 14
0066 8
0067 6
0068 4
0069 10
0070 7
0071 2
0072 1
0073 11
0074 15
0075 14
0076 6
0077 9
0078 8
0079 15
0080 18
0081 15
0082 2
0083 22
0084 1
0085 21
0086 8
0087 10
0088 13
0089 12
0090 8
0091 14
0092 8
0093 2
0094 17
0095 7
0096 7
0097 16
0098 0
0099 21
0100 16
0101 7
0102 5
0103 2
0104 8
0105 15
0106 3
0107 8
0108 8
0109 6
0110 8
0111 8
0112 2
0113 16
0114 16
0115 16
0116 16
0117 5
0118 16
0119 17
0120 17
0121 18
0122 5
0123 0
0124 3
0125 12
0126 18
0127 8
0128 9
0129 9
0130 13
0131 21
0132 12
0133 16
0134 12
0135 6
0136 10
0137 10
0138 22
0139 10
0140 14
0141 22
0142 22
0143 2
0144 7
0145 19
0146 20
0147 2
0148 13
0149 13
0150 10
0151 15
0152 3
0153 3
0154 10
0155 18
0156 13
0157 22
0158 6
0159 7
0160 11
0161 17
0162 11
0163 11
0164 6
0165 8
0166 7
0167 12
0168 20
0169 9
0170 11
0171 21
0172 7
0173 0
0174 0
0175 1
0176 4
0177 12
0178 12
0179 9
0180 9
0181 4
